decision_x1=[0,2];
decision_x2=[0,2];
decision_x3=[0,2];
decision_x4=[0,2];
decision_x5=[0,2];
decision_x6=[0,2];
decision_x7=[0,2];
decision_x8=[0,2];
decision_x9=[0,2];
decision_x10=[0,2];
decision_x11=[0,2];
decision_x12=[0,2];
decision_x13=[0,2];
decision_x14=[0,2];
decision_x15=[0,2];
decision_x16=[0,2];
decision_x17=[0,2];
decision_x18=[0,2];
decision_x19=[0,2];
decision_x20=[0,2];
random_y1=[0,2];
random_y2=[0,2];
random_y3=[0,2];
random_y4=[0,2];
constraint_x4_x1=[
0,0,9.1|
0,1,2.7|
0,2,1.2|
1,0,0.12|
1,1,2.1|
1,2,8.4|
2,0,8.6|
2,1,8.8|
2,2,6.4|
];
constraint_x5_x2=[
0,0,1.8|
0,1,6.2|
0,2,3.7|
1,0,1.8|
1,1,0.032|
1,2,9.2|
2,0,4.9|
2,1,2.6|
2,2,3.3|
];
constraint_x5_x3=[
0,0,6.9|
0,1,5.3|
0,2,7.3|
1,0,5.2|
1,1,1.4|
1,2,8.3|
2,0,9.8|
2,1,1.1|
2,2,9|
];
constraint_x6_x1=[
0,0,3.7|
0,1,7.8|
0,2,7.7|
1,0,7.4|
1,1,2.1|
1,2,8.7|
2,0,3.6|
2,1,4.5|
2,2,2.6|
];
constraint_x6_x2=[
0,0,6.9|
0,1,7.8|
0,2,3.6|
1,0,8.2|
1,1,2.5|
1,2,8.3|
2,0,2.3|
2,1,7.8|
2,2,8.1|
];
constraint_x7_x1=[
0,0,1.8|
0,1,9.5|
0,2,3.9|
1,0,8.3|
1,1,5.8|
1,2,4.7|
2,0,2.3|
2,1,4.1|
2,2,6.2|
];
constraint_x7_x2=[
0,0,0.69|
0,1,4.8|
0,2,9|
1,0,9.4|
1,1,2.9|
1,2,4|
2,0,3|
2,1,5.6|
2,2,9.1|
];
constraint_x7_x5=[
0,0,4.1|
0,1,8|
0,2,3.5|
1,0,8|
1,1,9.3|
1,2,9.5|
2,0,6.1|
2,1,5.8|
2,2,7.6|
];
constraint_x8_x1=[
0,0,6.4|
0,1,6.9|
0,2,6.2|
1,0,0.29|
1,1,5.3|
1,2,9.7|
2,0,6.8|
2,1,2.7|
2,2,4|
];
constraint_x8_x2=[
0,0,3.7|
0,1,5.3|
0,2,3.6|
1,0,7.5|
1,1,0.076|
1,2,8.6|
2,0,0.15|
2,1,7.9|
2,2,9.7|
];
constraint_x8_x3=[
0,0,2.5|
0,1,3.6|
0,2,9.9|
1,0,7.8|
1,1,9.9|
1,2,6|
2,0,1.4|
2,1,5.7|
2,2,2.3|
];
constraint_x8_x6=[
0,0,0.43|
0,1,7.2|
0,2,1.1|
1,0,7.6|
1,1,9.5|
1,2,7.7|
2,0,4.6|
2,1,3.1|
2,2,4.2|
];
constraint_x8_x7=[
0,0,7.2|
0,1,9.4|
0,2,2.2|
1,0,8.1|
1,1,9.9|
1,2,8.4|
2,0,8.1|
2,1,8.5|
2,2,3.5|
];
constraint_x9_x2=[
0,0,8.5|
0,1,2.5|
0,2,0.88|
1,0,1.3|
1,1,7.6|
1,2,3.3|
2,0,0.59|
2,1,1.6|
2,2,0.62|
];
constraint_x9_x6=[
0,0,4.4|
0,1,2|
0,2,3.1|
1,0,2.5|
1,1,3.4|
1,2,5.9|
2,0,5.6|
2,1,6.4|
2,2,5.5|
];
constraint_x9_x8=[
0,0,8.8|
0,1,4.1|
0,2,3.5|
1,0,9.3|
1,1,7|
1,2,8.9|
2,0,8.9|
2,1,3.3|
2,2,1.7|
];
constraint_x10_x2=[
0,0,9.5|
0,1,1.6|
0,2,0.84|
1,0,4.3|
1,1,7.7|
1,2,2|
2,0,6|
2,1,5|
2,2,6.3|
];
constraint_x10_x3=[
0,0,3.6|
0,1,8.7|
0,2,2.7|
1,0,9.1|
1,1,8|
1,2,5.3|
2,0,5.7|
2,1,9.6|
2,2,7.2|
];
constraint_x10_x5=[
0,0,4.6|
0,1,0.54|
0,2,6.1|
1,0,2.1|
1,1,4.4|
1,2,0.59|
2,0,5.8|
2,1,3.6|
2,2,1.5|
];
constraint_x10_x7=[
0,0,9.2|
0,1,3.2|
0,2,6.5|
1,0,1.3|
1,1,7.9|
1,2,6.5|
2,0,0.72|
2,1,1.4|
2,2,2.1|
];
constraint_x11_x1=[
0,0,7.7|
0,1,4.7|
0,2,9|
1,0,8.8|
1,1,4.5|
1,2,4.7|
2,0,9.6|
2,1,1.2|
2,2,5.8|
];
constraint_x11_x3=[
0,0,7|
0,1,4.9|
0,2,0.21|
1,0,2.8|
1,1,4.5|
1,2,0.63|
2,0,8.5|
2,1,8.2|
2,2,4.8|
];
constraint_x11_x5=[
0,0,8.4|
0,1,2.9|
0,2,0.88|
1,0,5.7|
1,1,4.5|
1,2,1.9|
2,0,5.3|
2,1,2.6|
2,2,3.5|
];
constraint_x11_x7=[
0,0,3.3|
0,1,6.5|
0,2,1.9|
1,0,5.8|
1,1,4.4|
1,2,0.34|
2,0,3.4|
2,1,4|
2,2,5.8|
];
constraint_x11_x8=[
0,0,5.3|
0,1,0.97|
0,2,4.5|
1,0,0.52|
1,1,6.7|
1,2,8.4|
2,0,0.25|
2,1,1.5|
2,2,8.3|
];
constraint_x11_x9=[
0,0,9.3|
0,1,1.3|
0,2,8.4|
1,0,4.9|
1,1,7.9|
1,2,8.6|
2,0,1.5|
2,1,7|
2,2,1.6|
];
constraint_x11_x10=[
0,0,3.5|
0,1,6.5|
0,2,4.4|
1,0,4.5|
1,1,0.015|
1,2,0.29|
2,0,2.9|
2,1,7|
2,2,9.3|
];
constraint_x12_x2=[
0,0,1.7|
0,1,4.9|
0,2,6.9|
1,0,7.6|
1,1,2.5|
1,2,5.4|
2,0,4.1|
2,1,1.8|
2,2,1.1|
];
constraint_x12_x3=[
0,0,1.6|
0,1,3.8|
0,2,8.4|
1,0,9.5|
1,1,4.7|
1,2,9.3|
2,0,5.7|
2,1,8.4|
2,2,8.7|
];
constraint_x12_x8=[
0,0,0.43|
0,1,7.9|
0,2,4.5|
1,0,6|
1,1,6.9|
1,2,1.5|
2,0,8.6|
2,1,2.6|
2,2,8.7|
];
constraint_x12_x9=[
0,0,1.1|
0,1,9.3|
0,2,2.3|
1,0,9.7|
1,1,1.1|
1,2,5.9|
2,0,1.4|
2,1,7.9|
2,2,2.6|
];
constraint_x13_x1=[
0,0,4|
0,1,1.3|
0,2,3|
1,0,10|
1,1,4.6|
1,2,2.8|
2,0,8|
2,1,4.1|
2,2,7.2|
];
constraint_x13_x3=[
0,0,5.3|
0,1,0.8|
0,2,5.8|
1,0,1.9|
1,1,8.7|
1,2,9.8|
2,0,2.8|
2,1,9.7|
2,2,6.1|
];
constraint_x13_x5=[
0,0,3.8|
0,1,7.9|
0,2,2.7|
1,0,8.9|
1,1,4.4|
1,2,2.8|
2,0,8.8|
2,1,7.5|
2,2,2|
];
constraint_x13_x9=[
0,0,7.1|
0,1,8.7|
0,2,9.2|
1,0,0.84|
1,1,5.7|
1,2,9.7|
2,0,9.6|
2,1,10|
2,2,7.2|
];
constraint_x13_x11=[
0,0,9.5|
0,1,7.7|
0,2,9|
1,0,1.3|
1,1,8.7|
1,2,0.093|
2,0,5.8|
2,1,1.7|
2,2,2.6|
];
constraint_x13_x12=[
0,0,6.8|
0,1,8.7|
0,2,8.2|
1,0,9.5|
1,1,7|
1,2,1|
2,0,3.6|
2,1,1.9|
2,2,6.4|
];
constraint_x14_x1=[
0,0,7.1|
0,1,7.8|
0,2,9|
1,0,5.7|
1,1,0.65|
1,2,5.1|
2,0,6.8|
2,1,8.1|
2,2,5.9|
];
constraint_x14_x2=[
0,0,7.5|
0,1,9.4|
0,2,3.7|
1,0,3.2|
1,1,9.5|
1,2,9|
2,0,8.9|
2,1,6.5|
2,2,8.1|
];
constraint_x14_x5=[
0,0,0.6|
0,1,9.6|
0,2,6.1|
1,0,4.2|
1,1,1.2|
1,2,0.83|
2,0,9.1|
2,1,1.2|
2,2,3.4|
];
constraint_x14_x7=[
0,0,8.2|
0,1,2.9|
0,2,4|
1,0,6.1|
1,1,5.6|
1,2,6|
2,0,2.8|
2,1,9.9|
2,2,3.5|
];
constraint_x14_x8=[
0,0,3.1|
0,1,5.2|
0,2,8.2|
1,0,4.2|
1,1,8.8|
1,2,9.1|
2,0,4.5|
2,1,1.6|
2,2,4.8|
];
constraint_x14_x13=[
0,0,4.5|
0,1,7.5|
0,2,7.7|
1,0,2.3|
1,1,2.1|
1,2,0.23|
2,0,1.5|
2,1,7.2|
2,2,6.2|
];
constraint_x15_x3=[
0,0,3.7|
0,1,1.3|
0,2,7.1|
1,0,7.8|
1,1,0.091|
1,2,5.7|
2,0,4.2|
2,1,4.5|
2,2,8.1|
];
constraint_x15_x4=[
0,0,1.5|
0,1,7.3|
0,2,6.5|
1,0,5.8|
1,1,0.74|
1,2,8.5|
2,0,5.7|
2,1,0.77|
2,2,5.6|
];
constraint_x15_x5=[
0,0,5.4|
0,1,4.3|
0,2,8.6|
1,0,1.2|
1,1,8.4|
1,2,8.8|
2,0,8.9|
2,1,7.7|
2,2,0.24|
];
constraint_x15_x6=[
0,0,5.2|
0,1,9.5|
0,2,9.8|
1,0,4.6|
1,1,0.73|
1,2,5.6|
2,0,8.7|
2,1,6.4|
2,2,6.7|
];
constraint_x15_x8=[
0,0,2.7|
0,1,4.3|
0,2,0.064|
1,0,2|
1,1,8.3|
1,2,7.6|
2,0,1.8|
2,1,9.8|
2,2,6.2|
];
constraint_x15_x9=[
0,0,7.7|
0,1,8.6|
0,2,1.6|
1,0,0.076|
1,1,6.2|
1,2,1.2|
2,0,4.2|
2,1,8|
2,2,6|
];
constraint_x15_x10=[
0,0,9|
0,1,8.9|
0,2,1.9|
1,0,0.0092|
1,1,8.5|
1,2,5.4|
2,0,9.8|
2,1,0.46|
2,2,1.9|
];
constraint_x15_x13=[
0,0,0.95|
0,1,8.3|
0,2,3.1|
1,0,6.2|
1,1,8.7|
1,2,2.8|
2,0,5.2|
2,1,4.4|
2,2,5.9|
];
constraint_x16_x3=[
0,0,5.5|
0,1,9.2|
0,2,0.33|
1,0,7.1|
1,1,9.4|
1,2,7.2|
2,0,0.018|
2,1,9.2|
2,2,7.6|
];
constraint_x16_x7=[
0,0,7.3|
0,1,10|
0,2,7.3|
1,0,7.1|
1,1,3.6|
1,2,1.3|
2,0,7.5|
2,1,0.29|
2,2,4.5|
];
constraint_x16_x8=[
0,0,3.9|
0,1,4.2|
0,2,6.5|
1,0,6.7|
1,1,1.5|
1,2,1.6|
2,0,2|
2,1,3.2|
2,2,5.2|
];
constraint_x16_x9=[
0,0,7.4|
0,1,3.6|
0,2,1.3|
1,0,6.2|
1,1,4.6|
1,2,7|
2,0,4.3|
2,1,2.6|
2,2,2.3|
];
constraint_x16_x11=[
0,0,7.4|
0,1,8.2|
0,2,4.2|
1,0,5.9|
1,1,0.14|
1,2,1.3|
2,0,1.1|
2,1,6.6|
2,2,2.6|
];
constraint_x16_x14=[
0,0,2.2|
0,1,8|
0,2,4.5|
1,0,3.1|
1,1,0.044|
1,2,5.3|
2,0,4|
2,1,4.7|
2,2,5.7|
];
constraint_x16_x15=[
0,0,3.3|
0,1,7.4|
0,2,7.8|
1,0,7.7|
1,1,8.2|
1,2,4.2|
2,0,7.3|
2,1,7.9|
2,2,7.2|
];
constraint_x17_x2=[
0,0,0.29|
0,1,5.4|
0,2,7.8|
1,0,2|
1,1,4|
1,2,8|
2,0,6.2|
2,1,7.8|
2,2,3.9|
];
constraint_x17_x4=[
0,0,0.096|
0,1,6.4|
0,2,2|
1,0,3.8|
1,1,9|
1,2,3.5|
2,0,3|
2,1,7.5|
2,2,2.7|
];
constraint_x17_x5=[
0,0,2|
0,1,2.3|
0,2,1.1|
1,0,6.8|
1,1,3.7|
1,2,3.8|
2,0,7.5|
2,1,0.79|
2,2,6.9|
];
constraint_x17_x6=[
0,0,9.4|
0,1,6.2|
0,2,7.2|
1,0,8.2|
1,1,1.5|
1,2,7|
2,0,9.6|
2,1,5.9|
2,2,9.6|
];
constraint_x17_x7=[
0,0,1|
0,1,0.17|
0,2,9.7|
1,0,2.2|
1,1,7.8|
1,2,2.4|
2,0,2.2|
2,1,0.53|
2,2,2.2|
];
constraint_x17_x8=[
0,0,6.2|
0,1,7.3|
0,2,4.6|
1,0,3.2|
1,1,8.9|
1,2,0.027|
2,0,9.4|
2,1,9.8|
2,2,0.48|
];
constraint_x17_x9=[
0,0,9.6|
0,1,7.3|
0,2,6.4|
1,0,4.4|
1,1,3.2|
1,2,9.3|
2,0,9|
2,1,2.7|
2,2,9.7|
];
constraint_x17_x10=[
0,0,5.3|
0,1,5.6|
0,2,6|
1,0,5.8|
1,1,1|
1,2,1.1|
2,0,4.3|
2,1,0.8|
2,2,3.8|
];
constraint_x17_x15=[
0,0,1.8|
0,1,1.5|
0,2,7.7|
1,0,3.6|
1,1,5.4|
1,2,9.1|
2,0,6.5|
2,1,7.1|
2,2,6.2|
];
constraint_x18_x1=[
0,0,0.69|
0,1,4.7|
0,2,4|
1,0,2.8|
1,1,3.3|
1,2,9|
2,0,9|
2,1,0.76|
2,2,8|
];
constraint_x18_x5=[
0,0,5.9|
0,1,5.7|
0,2,9|
1,0,0.58|
1,1,8.1|
1,2,6.6|
2,0,6.8|
2,1,5.5|
2,2,4|
];
constraint_x18_x7=[
0,0,6.4|
0,1,8.4|
0,2,6.6|
1,0,6.5|
1,1,5.4|
1,2,2.6|
2,0,5.1|
2,1,4.3|
2,2,7.7|
];
constraint_x18_x8=[
0,0,3|
0,1,8|
0,2,8.2|
1,0,1.1|
1,1,9.3|
1,2,0.71|
2,0,3.3|
2,1,7|
2,2,7|
];
constraint_x18_x10=[
0,0,9.2|
0,1,4.6|
0,2,1|
1,0,0.88|
1,1,4.3|
1,2,4.3|
2,0,9.6|
2,1,5.8|
2,2,6.8|
];
constraint_x18_x13=[
0,0,9.8|
0,1,3.2|
0,2,7.3|
1,0,0.48|
1,1,6.1|
1,2,1.3|
2,0,9.6|
2,1,1.5|
2,2,0.97|
];
constraint_x18_x14=[
0,0,5.7|
0,1,9.7|
0,2,0.64|
1,0,8.7|
1,1,9.4|
1,2,6|
2,0,5.8|
2,1,2.2|
2,2,5.4|
];
constraint_x19_x1=[
0,0,0.65|
0,1,8.7|
0,2,8.2|
1,0,5.5|
1,1,8|
1,2,3.2|
2,0,6.5|
2,1,4.9|
2,2,2|
];
constraint_x19_x2=[
0,0,9.3|
0,1,1.4|
0,2,5.3|
1,0,2.5|
1,1,7.4|
1,2,3.6|
2,0,2|
2,1,1.1|
2,2,4.2|
];
constraint_x19_x3=[
0,0,9.8|
0,1,4.6|
0,2,9|
1,0,2.2|
1,1,5.7|
1,2,0.17|
2,0,4.8|
2,1,3.7|
2,2,2.8|
];
constraint_x19_x5=[
0,0,5.2|
0,1,5.3|
0,2,8.5|
1,0,2.1|
1,1,2.6|
1,2,8.7|
2,0,7.2|
2,1,0.87|
2,2,2.8|
];
constraint_x19_x6=[
0,0,8.8|
0,1,3|
0,2,2.9|
1,0,5.8|
1,1,8.8|
1,2,3|
2,0,5.3|
2,1,5|
2,2,7.3|
];
constraint_x19_x10=[
0,0,7|
0,1,2.9|
0,2,6.8|
1,0,8.3|
1,1,9.2|
1,2,0.42|
2,0,3|
2,1,3.5|
2,2,5.9|
];
constraint_x19_x11=[
0,0,1.4|
0,1,8|
0,2,5.3|
1,0,2.9|
1,1,9.3|
1,2,2.5|
2,0,6.4|
2,1,1.6|
2,2,4.4|
];
constraint_x19_x13=[
0,0,6.9|
0,1,8.3|
0,2,2.5|
1,0,9.7|
1,1,4.4|
1,2,2.8|
2,0,3.3|
2,1,8.1|
2,2,7|
];
constraint_x19_x14=[
0,0,7.1|
0,1,9.4|
0,2,3.4|
1,0,0.11|
1,1,9.3|
1,2,4.4|
2,0,1.9|
2,1,4|
2,2,7|
];
constraint_x19_x17=[
0,0,8.5|
0,1,6.1|
0,2,5.7|
1,0,3.1|
1,1,5.6|
1,2,0.36|
2,0,4.1|
2,1,3.8|
2,2,4.8|
];
constraint_x19_x18=[
0,0,5.9|
0,1,6|
0,2,5.3|
1,0,4.4|
1,1,5.3|
1,2,3.4|
2,0,2.3|
2,1,7.7|
2,2,1.4|
];
constraint_x20_x1=[
0,0,3.7|
0,1,0.29|
0,2,9.6|
1,0,1.3|
1,1,1|
1,2,3.9|
2,0,5.9|
2,1,1.3|
2,2,1.8|
];
constraint_x20_x3=[
0,0,7.6|
0,1,2.5|
0,2,8.3|
1,0,2|
1,1,9.6|
1,2,9.5|
2,0,4.5|
2,1,0.78|
2,2,7.9|
];
constraint_x20_x5=[
0,0,3.5|
0,1,1.8|
0,2,8.4|
1,0,7.2|
1,1,9.8|
1,2,8.5|
2,0,0.31|
2,1,5.6|
2,2,8.5|
];
constraint_x20_x7=[
0,0,6.1|
0,1,2.3|
0,2,0.59|
1,0,3.8|
1,1,4.4|
1,2,5|
2,0,0.2|
2,1,0.64|
2,2,5.8|
];
constraint_x20_x8=[
0,0,5.2|
0,1,9.1|
0,2,4.9|
1,0,7.7|
1,1,0.33|
1,2,7.9|
2,0,3.5|
2,1,3.7|
2,2,4.8|
];
constraint_x20_x9=[
0,0,3.3|
0,1,1.4|
0,2,4.7|
1,0,5.1|
1,1,6.3|
1,2,5.2|
2,0,1.3|
2,1,0.45|
2,2,3.3|
];
constraint_x20_x12=[
0,0,7.5|
0,1,8.3|
0,2,7|
1,0,3.5|
1,1,6.9|
1,2,4.8|
2,0,5.2|
2,1,2.9|
2,2,8.8|
];
constraint_x20_x14=[
0,0,9.1|
0,1,7.1|
0,2,7.2|
1,0,1.5|
1,1,9.4|
1,2,5.5|
2,0,3.5|
2,1,4.5|
2,2,3.2|
];
constraint_x20_x17=[
0,0,2|
0,1,9.7|
0,2,9.2|
1,0,0.71|
1,1,1.9|
1,2,0.58|
2,0,7.1|
2,1,3.1|
2,2,6.2|
];
constraint_x20_x19=[
0,0,3.8|
0,1,5.1|
0,2,6.1|
1,0,4.9|
1,1,0.69|
1,2,7|
2,0,7.8|
2,1,4.7|
2,2,3.8|
];
constraint_x1_y1=[
0,0,2.1|
0,1,4.2|
0,2,5.4|
1,0,0.7|
1,1,9.8|
1,2,7.2|
2,0,1.5|
2,1,7.5|
2,2,0.74|
];
constraint_x2_y2=[
0,0,4.9|
0,1,9.2|
0,2,9.7|
1,0,4.4|
1,1,8.4|
1,2,0.042|
2,0,1.6|
2,1,1.1|
2,2,8.6|
];
constraint_x3_y3=[
0,0,6.5|
0,1,8.1|
0,2,0.97|
1,0,10|
1,1,6.3|
1,2,4.7|
2,0,5.4|
2,1,2|
2,2,5|
];
constraint_x4_y4=[
0,0,7.5|
0,1,3.9|
0,2,8.6|
1,0,5.4|
1,1,3.7|
1,2,8.4|
2,0,3.6|
2,1,7.4|
2,2,3.7|
];
initial_distribution_y1=[0.28,0.28,0.45];
initial_distribution_y2=[0.13,0.085,0.79];
initial_distribution_y3=[0.16,0.55,0.29];
initial_distribution_y4=[0.38,0.27,0.34];
transition_y1=[
0.54,0.042,0.42|
0.097,0.26,0.64|
0.34,0.62,0.042|
];
transition_y2=[
0.36,0.32,0.32|
0.2,0.26,0.54|
0.38,0.53,0.095|
];
transition_y3=[
0.71,0.23,0.064|
0.18,0.41,0.42|
0.14,0.47,0.4|
];
transition_y4=[
0.24,0.44,0.32|
0.29,0.36,0.34|
0.14,0.49,0.37|
];
